3597.1
0 1 6 13 2 5 9 3 10 11 12 8 15 7 4 42 38 18 21 20 23 37 34 58 0
0 17 16 14 24 19 63 57 0
0 22 28 26 73 67 29 25 27 76 0
0 33 35 31 32 30 39 36 0
0 68 44 43 40 47 49 48 45 41 46 52 0
0 69 50 51 60 55 56 54 61 53 0
0 94 75 91 78 80 71 70 74 66 99 98 62 64 59 0
0 77 81 100 65 72 0
0 88 86 82 83 79 84 87 85 0
0 93 95 90 92 89 0
0 96 97 0
